1 1 -2 0
1 -1 3 0
1 1 -4 0
1 1 5 0
1 2 3 0
1 2 4 0
1 -2 -1 0
1 2 -5 0
1 6 7 0
1 6 3 0
1 -6 8 0
1 6 -9 0
1 6 5 0
1 -6 10 0
1 11 -12 0
1 -11 7 0
1 11 3 0
1 11 -4 0
1 11 8 0
1 -11 9 0
1 11 -6 0
1 11 -10 0
1 -4 -13 0
1 4 -14 0
1 4 2 0
1 4 -15 0
1 4 16 0
1 -4 -1 0
1 4 -10 0
1 -10 -17 0
1 -10 14 0
1 -10 18 0
1 10 -4 0
1 10 19 0
1 10 16 0
1 -10 20 0
1 -10 -6 0
1 -10 1 0
1 -3 -13 0
1 3 21 0
1 -3 -11 0
1 -3 2 0
1 3 19 0
1 -3 22 0
1 3 -23 0
1 -3 -6 0
1 -3 1 0
1 -3 5 0
1 5 -13 0
1 -5 -24 0
1 5 -11 0
1 -5 3 0
1 5 19 0
1 5 22 0
1 5 23 0
1 5 1 0
1 -20 12 0
1 -20 7 0
1 -20 -18 0
1 20 4 0
1 -20 8 0
1 20 -9 0
1 20 -23 0
1 18 -7 0
1 18 21 0
1 -18 8 0
1 18 -9 0
1 18 20 0
1 18 -10 0
1 -16 12 0
1 -16 -7 0
1 -16 14 0
1 16 25 0
1 16 4 0
1 -16 -8 0
1 16 -26 0
1 16 -22 0
1 -16 10 0
1 -14 25 0
1 -14 -24 0
1 14 -27 0
1 -14 -4 0
1 -14 8 0
1 -14 -26 0
1 14 -10 0
1 -9 -28 0
1 9 -29 0
1 -9 -14 0
1 9 -18 0
1 -9 11 0
1 9 30 0
1 9 31 0
1 9 -32 0
1 9 16 0
1 -9 -20 0
1 -9 6 0
1 9 -33 0
1 -7 -28 0
1 7 -18 0
1 7 31 0
1 -7 -32 0
1 -7 9 0
1 -7 16 0
1 -7 6 0
1 7 -33 0
1 8 12 0
1 8 34 0
1 8 -14 0
1 8 -11 0
1 -8 -35 0
1 8 16 0
1 -8 20 0
1 8 33 0
1 -12 -34 0
1 -12 13 0
1 12 14 0
1 12 18 0
1 -12 11 0
1 -12 -30 0
1 12 35 0
1 12 -19 0
1 12 -16 0
1 12 -20 0
1 12 -33 0
1 -32 29 0
1 -32 -7 0
1 32 27 0
1 -32 19 0
1 -32 -26 0
1 32 -36 0
1 -29 -7 0
1 29 -25 0
1 29 27 0
1 -29 -9 0
1 -29 -36 0
1 -31 25 0
1 -31 -27 0
1 31 35 0
1 -31 9 0
1 -31 36 0
1 28 -7 0
1 -28 -25 0
1 28 27 0
1 -28 -31 0
1 28 -26 0
1 28 36 0
1 -36 -29 0
1 36 27 0
1 -36 -31 0
1 -36 32 0
1 27 29 0
1 27 -32 0
1 -27 -16 0
1 -27 -36 0
1 26 28 0
1 -26 25 0
1 26 37 0
1 26 31 0
1 -26 32 0
1 -26 33 0
1 -25 -28 0
1 -25 -29 0
1 25 -14 0
1 -25 -37 0
1 25 -30 0
1 -25 32 0
1 25 -33 0
1 23 -38 0
1 23 -39 0
1 -23 -3 0
1 23 -40 0
1 -23 20 0
1 23 5 0
1 21 38 0
1 -21 -18 0
1 21 -39 0
1 -21 3 0
1 -21 41 0
1 21 40 0
1 -21 5 0
1 22 -24 0
1 -22 38 0
1 22 39 0
1 -22 42 0
1 22 43 0
1 22 -3 0
1 22 41 0
1 22 16 0
1 22 40 0
1 22 44 0
1 24 40 0
1 -24 -38 0
1 24 39 0
1 -24 3 0
1 -24 22 0
1 24 -44 0
1 -24 -45 0
1 -24 -5 0
1 -39 40 0
1 -39 34 0
1 -39 13 0
1 -39 24 0
1 -39 -21 0
1 39 19 0
1 39 22 0
1 39 23 0
1 -40 34 0
1 -40 13 0
1 40 -24 0
1 40 35 0
1 -40 19 0
1 40 -23 0
1 38 24 0
1 38 -21 0
1 38 -22 0
1 -41 38 0
1 41 21 0
1 41 -23 0
1 19 12 0
1 19 43 0
1 -19 -3 0
1 -19 -4 0
1 19 -8 0
1 19 32 0
1 -19 -44 0
1 19 45 0
1 19 -5 0
1 -19 10 0
1 -13 -12 0
1 -13 -29 0
1 -13 39 0
1 -13 42 0
1 13 -43 0
1 -13 3 0
1 -13 8 0
1 -13 19 0
1 13 40 0
1 13 5 0
1 13 -10 0
1 -35 39 0
1 35 42 0
1 -35 -43 0
1 35 -15 0
1 -35 -8 0
1 -35 -31 0
1 35 -40 0
1 35 46 0
1 -34 17 0
1 -34 28 0
1 34 -12 0
1 -34 -39 0
1 34 43 0
1 34 47 0
1 -34 -15 0
1 34 35 0
1 -34 -40 0
1 34 -44 0
1 34 46 0
1 -43 34 0
1 43 -13 0
1 -43 30 0
1 43 -35 0
1 43 -19 0
1 -43 -22 0
1 45 -34 0
1 -45 24 0
1 45 43 0
1 -45 -30 0
1 -45 -19 0
1 -45 48 0
1 -45 33 0
1 42 13 0
1 42 -24 0
1 -42 -35 0
1 42 -19 0
1 -42 -44 0
1 -44 24 0
1 -44 -42 0
1 -44 -35 0
1 -44 -19 0
1 -30 17 0
1 30 7 0
1 -30 -25 0
1 -30 -47 0
1 30 8 0
1 30 15 0
1 30 -26 0
1 -30 -45 0
1 30 -46 0
1 -30 33 0
1 33 12 0
1 -33 -17 0
1 -33 -25 0
1 -33 -43 0
1 33 47 0
1 33 30 0
1 33 15 0
1 -33 -8 0
1 33 -46 0
1 37 17 0
1 37 43 0
1 -37 47 0
1 37 15 0
1 37 45 0
1 37 46 0
1 -48 17 0
1 48 25 0
1 48 -43 0
1 48 47 0
1 -48 15 0
1 -48 46 0
1 -15 17 0
1 15 -34 0
1 15 37 0
1 -15 -30 0
1 -15 -4 0
1 -15 -33 0
1 17 -30 0
1 -17 15 0
1 17 -35 0
1 17 10 0
1 47 34 0
1 -47 37 0
1 -47 3 0
1 -47 30 0
1 47 -33 0
1 46 34 0
1 -46 35 0
1 -46 5 0
1 -46 -33 0
